experiment/data/lkh-res/Vrp-Set-Li-n641/Vrp-Set-Li-n641-lkh/0.lkh1.tour
NAME : 0.1905185.tour
COMMENT : Length = 1905185
COMMENT : Found by LKH-3 [Keld Helsgaun] Tue Apr  9 02:26:29 2024
TYPE : TOUR
DIMENSION : 650
TOUR_SECTION
1
27
28
29
69
109
149
189
229
269
309
349
389
429
469
509
549
589
629
628
588
548
508
468
428
388
348
308
268
228
227
267
307
347
387
427
467
507
547
587
627
626
586
546
506
466
426
386
346
306
266
226
186
187
188
148
147
146
145
105
106
107
108
68
67
66
65
25
26
650
19
59
99
139
179
178
218
258
298
338
378
418
458
498
538
578
618
619
579
539
499
459
419
379
339
299
259
219
220
260
300
340
380
420
460
500
540
580
620
621
581
541
501
461
421
381
341
301
261
221
181
180
140
100
60
20
646
7
8
9
49
89
129
169
209
249
289
329
369
409
449
489
529
569
609
488
528
568
608
607
567
527
487
447
407
448
408
368
328
288
248
208
207
247
246
286
287
327
367
326
366
406
446
486
526
566
606
605
565
525
485
445
405
365
325
285
245
205
206
166
167
168
128
127
126
86
87
88
48
47
46
6
645
34
35
75
115
155
195
235
275
315
355
395
435
475
434
474
514
554
594
634
515
555
595
635
636
596
556
516
476
436
396
356
316
276
236
237
277
317
357
397
437
477
517
557
597
637
638
598
558
518
478
438
398
358
318
278
238
198
197
196
156
157
117
116
76
36
649
38
39
40
41
2
42
81
80
120
121
82
122
161
160
200
201
162
202
242
282
322
362
402
442
482
522
562
602
641
601
561
521
481
441
401
361
321
281
241
240
280
320
360
400
440
480
520
560
600
640
639
599
559
519
479
439
399
359
319
279
239
199
159
158
118
119
79
78
77
37
642
5
45
85
125
165
164
204
244
284
324
364
404
444
484
524
564
604
603
563
523
483
443
403
363
323
283
243
203
163
123
124
84
83
43
44
4
3
644
10
50
51
91
90
130
131
171
170
210
250
290
330
370
410
450
490
530
570
610
611
571
531
491
451
411
371
331
291
251
211
212
252
292
332
372
412
452
492
532
572
612
613
573
533
493
453
413
373
333
293
253
213
173
172
132
133
134
94
93
92
52
53
54
14
13
12
11
648
24
64
63
62
102
103
104
144
184
185
225
265
305
345
385
425
465
505
545
585
625
624
584
544
504
464
424
384
344
304
264
224
223
263
303
343
383
423
463
503
543
583
623
622
582
542
502
462
422
382
342
302
262
222
182
183
143
142
141
101
61
21
22
23
643
17
18
58
57
56
96
97
98
138
137
136
176
177
217
257
297
337
377
417
457
497
537
577
617
616
576
536
496
456
416
376
336
296
256
216
215
255
295
335
375
415
455
495
535
575
615
614
574
534
494
454
414
374
334
294
254
214
174
175
135
95
55
15
16
647
31
32
33
73
74
114
113
153
154
194
193
233
234
274
273
313
314
354
394
353
393
433
473
513
553
593
633
632
592
552
512
472
432
392
352
312
272
232
231
271
311
351
391
431
471
511
551
591
631
630
590
550
510
470
430
390
350
310
270
230
190
191
192
152
151
150
110
111
112
72
71
70
30
-1
EOF
